; sqlalchemy :: corpus-study/repo_src/sqlalchemy/lib/sqlalchemy/util/queue.py :: wait_for at put:282 :: structured encoding (verdict: sat)
; Generated by snf-pipeline (encoder.py) -- run with any
; SMT-LIB2-compliant solver, e.g. `z3 sqlalchemy__corpus-study_repo_src_sqlalchemy_lib_sqlalchemy_util_queue.py__waitfor_put_L282__structured.smt2`
; benchmark generated from python API
(set-info :status unknown)
(declare-fun timeout_fires () Bool)
(declare-fun completes_first () Bool)
(declare-fun cleanup_ran () Bool)
(assert
 (or completes_first timeout_fires))
(assert
 (let (($x27 (not cleanup_ran)))
(and timeout_fires $x27)))
(check-sat)
